100 2768
152 460 434 874 379 407 963 145 544 64 9 57 205 472 313 426 488 432 212 39 275 781 926 958 123 884 842 621 252 158 183 134 470 421 301 139 355 957 176 817 910 171 475 33 620 241 406 98 494 671 209 824 637 595 990 296 708 498 874 113 794 876 147 35 292 899 195 555 278 203 283 629 291 67 320 720 152 451 362 997 989 708 727 80 315 586 308 877 422 588 68 755 235 530 238 316 843 502 186 186 
415 464 874 895 748 437 429 543 861 878 355 383 716 184 28 128 725 940 889 530 53 723 876 754 940 116 658 755 253 395 993 663 667 313 548 413 724 648 700 434 223 157 6 145 935 294 913 629 495 652 110 596 757 424 488 339 713 654 52 606 916 678 775 974 275 384 796 594 716 829 517 513 454 459 655 652 482 383 840 238 533 849 834 797 693 997 351 376 946 671 444 648 260 387 272 537 945 420 460 144 
